100
128
4
16
49
24
7
21
15
63
38
61
26
8
18
14
6
57
9
4
7
64
16
54
45
28
13
6
25
29
9
12
59
30
46
17
28
2
57
58
19
60
31
19
41
29
60
64
37
14
19
32
52
17
43
64
33
12
64
41
22
41
35
56
34
61
57
13
24
55
25
47
41
52
51
36
35
16
25
16
14
12
12
8
1
22
3
59
56
44
29
38
61
57
28
29
43
50
63
40
35
64